GLPK/HW-0619/hw-4.dat
data;

param N:=4;
param c:=
    1 1 0
    1 2 75
    1 3 75
    1 4 75
    2 1 75
    2 2 0
    2 3 75
    2 4 0
    3 1 75
    3 2 75
    3 3 0
    3 4 75
    4 1 75
    4 2 0
    4 3 75
    4 4 0;

param T:=
    1 1 0
    1 2 35
    1 3 35
    1 4 35
    2 1 35
    2 2 0
    2 3 35
    2 4 35
    3 1 35
    3 2 35
    3 3 0
    3 4 35
    4 1 35
    4 2 35
    4 3 35
    4 4 0;

end;